\* Diet *\
Minimize
Total_cost_of_foods: 11790 + 11791
Subject To
_C1: 2.94 11790 + 2.94 11791 >= 56
_C10: 42 11790 + 42 11791 >= 700
_C11: 144 11790 + 144 11791 >= 4700
_C12: 252 11790 + 252 11791 >= 1500
_C13: 0.27 11790 + 0.27 11791 >= 11
_C14: 0.067 11790 + 0.067 11791 >= 0.9
_C15: 0.542 11790 + 0.542 11791 >= 2.3
_C16: 11790 + 11791 >= 55
_C17: 146 11790 + 146 11791 >= 900
_C18: 1.61 11790 + 1.61 11791 >= 15
_dummy: __dummy = 0
_C19: __dummy >= 15
_C2: 5.3 11790 + 5.3 11791 >= 130
_C20: 17.8 11790 + 17.8 11791 >= 90
_C21: 0.063 11790 + 0.063 11791 >= 1.2
_C22: 0.14 11790 + 0.14 11791 >= 1.3
_C23: 0.457 11790 + 0.457 11791 >= 16
_C24: 0.17 11790 + 0.17 11791 >= 5
_C25: 0.063 11790 + 0.063 11791 >= 1.3
_C26: 65 11790 + 65 11791 >= 400
_C27: __dummy >= 2.4
_C28: 0.4 11790 + 0.5 11791 >= 550
_C29: 418.5 11790 + 418.5 11791 >= 120
_C3: 44 11790 + 36 11791 >= 2300
_C30: 0.255 11790 + 0.258 11791 >= 17
_C31: 0.331 11790 + 0.336 11791 >= 1.6
_C32: 11790 >= 0
_C33: 11791 >= 0
_C4: 44 11790 + 36 11791 <= 2600
_C5: 89.82 11790 + 89.82 11791 >= 3.7
_C6: 2.3 11790 + 2.3 11791 >= 38
_C7: 150 11790 + 150 11791 >= 1000
_C8: 0.84 11790 + 0.84 11791 >= 8
_C9: 25 11790 + 25 11791 >= 400
Bounds
__dummy = 0
End
